c nIsolatedPIs 0
c maxPI 12
p cnf 189 532
c gate 13 4 8 0
4 -13 0
8 -13 0
-4 -8 13 0
c gate 14 3 7 0
3 -14 0
7 -14 0
-3 -7 14 0
c gate 15 13 -14 0
13 -15 0
-14 -15 0
-13 14 15 0
c gate 16 3 8 0
3 -16 0
8 -16 0
-3 -8 16 0
c gate 17 3 6 0
3 -17 0
6 -17 0
-3 -6 17 0
c gate 18 4 7 0
4 -18 0
7 -18 0
-4 -7 18 0
c gate 19 -17 18 0
-17 -19 0
18 -19 0
17 -18 19 0
c gate 20 16 -19 0
16 -20 0
-19 -20 0
-16 19 20 0
c gate 21 -16 19 0
-16 -21 0
19 -21 0
16 -19 21 0
c gate 22 -20 -21 0
-20 -22 0
-21 -22 0
20 21 22 0
c gate 23 2 8 0
2 -23 0
8 -23 0
-2 -8 23 0
c gate 24 4 6 0
4 -24 0
6 -24 0
-4 -6 24 0
c gate 25 -14 -24 0
-14 -25 0
-24 -25 0
14 24 25 0
c gate 26 23 -25 0
23 -26 0
-25 -26 0
-23 25 26 0
c gate 27 1 7 0
1 -27 0
7 -27 0
-1 -7 27 0
c gate 28 2 6 0
2 -28 0
6 -28 0
-2 -6 28 0
c gate 29 3 5 0
3 -29 0
5 -29 0
-3 -5 29 0
c gate 30 -28 -29 0
-28 -30 0
-29 -30 0
28 29 30 0
c gate 31 27 -30 0
27 -31 0
-30 -31 0
-27 30 31 0
c gate 32 2 7 0
2 -32 0
7 -32 0
-2 -7 32 0
c gate 33 4 5 0
4 -33 0
5 -33 0
-4 -5 33 0
c gate 34 -17 -33 0
-17 -34 0
-33 -34 0
17 33 34 0
c gate 35 -32 34 0
-32 -35 0
34 -35 0
32 -34 35 0
c gate 36 31 -35 0
31 -36 0
-35 -36 0
-31 35 36 0
c gate 37 1 8 0
1 -37 0
8 -37 0
-1 -8 37 0
c gate 38 -31 35 0
-31 -38 0
35 -38 0
31 -35 38 0
c gate 39 -36 -38 0
-36 -39 0
-38 -39 0
36 38 39 0
c gate 40 37 39 0
37 -40 0
39 -40 0
-37 -39 40 0
c gate 41 -36 -40 0
-36 -41 0
-40 -41 0
36 40 41 0
c gate 42 -23 25 0
-23 -42 0
25 -42 0
23 -25 42 0
c gate 43 -26 -42 0
-26 -43 0
-42 -43 0
26 42 43 0
c gate 44 -41 43 0
-41 -44 0
43 -44 0
41 -43 44 0
c gate 45 -26 -44 0
-26 -45 0
-44 -45 0
26 44 45 0
c gate 46 -22 -45 0
-22 -46 0
-45 -46 0
22 45 46 0
c gate 47 15 -46 0
15 -47 0
-46 -47 0
-15 46 47 0
c gate 48 13 -47 0
13 -48 0
-47 -48 0
-13 47 48 0
c gate 49 28 29 0
28 -49 0
29 -49 0
-28 -29 49 0
c gate 50 -27 49 0
-27 -50 0
49 -50 0
27 -49 50 0
c gate 51 -27 30 0
-27 -51 0
30 -51 0
27 -30 51 0
c gate 52 -31 -51 0
-31 -52 0
-51 -52 0
31 51 52 0
c gate 53 -49 -52 0
-49 -53 0
-52 -53 0
49 52 53 0
c gate 54 -50 -53 0
-50 -54 0
-53 -54 0
50 53 54 0
c gate 55 2 5 0
2 -55 0
5 -55 0
-2 -5 55 0
c gate 56 1 6 0
1 -56 0
6 -56 0
-1 -6 56 0
c gate 57 55 56 0
55 -57 0
56 -57 0
-55 -56 57 0
c gate 58 54 57 0
54 -58 0
57 -58 0
-54 -57 58 0
c gate 59 17 33 0
17 -59 0
33 -59 0
-17 -33 59 0
c gate 60 -34 -59 0
-34 -60 0
-59 -60 0
34 59 60 0
c gate 61 -32 -60 0
-32 -61 0
-60 -61 0
32 60 61 0
c gate 62 32 60 0
32 -62 0
60 -62 0
-32 -60 62 0
c gate 63 -61 -62 0
-61 -63 0
-62 -63 0
61 62 63 0
c gate 64 -31 -49 0
-31 -64 0
-49 -64 0
31 49 64 0
c gate 65 63 -64 0
63 -65 0
-64 -65 0
-63 64 65 0
c gate 66 -63 64 0
-63 -66 0
64 -66 0
63 -64 66 0
c gate 67 -65 -66 0
-65 -67 0
-66 -67 0
65 66 67 0
c gate 68 37 67 0
37 -68 0
67 -68 0
-37 -67 68 0
c gate 69 -37 -67 0
-37 -69 0
-67 -69 0
37 67 69 0
c gate 70 -68 -69 0
-68 -70 0
-69 -70 0
68 69 70 0
c gate 71 58 70 0
58 -71 0
70 -71 0
-58 -70 71 0
c gate 72 -65 -68 0
-65 -72 0
-68 -72 0
65 68 72 0
c gate 73 -59 -62 0
-59 -73 0
-62 -73 0
59 62 73 0
c gate 74 14 24 0
14 -74 0
24 -74 0
-14 -24 74 0
c gate 75 -25 -74 0
-25 -75 0
-74 -75 0
25 74 75 0
c gate 76 -73 75 0
-73 -76 0
75 -76 0
73 -75 76 0
c gate 77 73 -75 0
73 -77 0
-75 -77 0
-73 75 77 0
c gate 78 -76 -77 0
-76 -78 0
-77 -78 0
76 77 78 0
c gate 79 -23 -78 0
-23 -79 0
-78 -79 0
23 78 79 0
c gate 80 23 78 0
23 -80 0
78 -80 0
-23 -78 80 0
c gate 81 -79 -80 0
-79 -81 0
-80 -81 0
79 80 81 0
c gate 82 72 -81 0
72 -82 0
-81 -82 0
-72 81 82 0
c gate 83 -72 81 0
-72 -83 0
81 -83 0
72 -81 83 0
c gate 84 -82 -83 0
-82 -84 0
-83 -84 0
82 83 84 0
c gate 85 71 84 0
71 -85 0
84 -85 0
-71 -84 85 0
c gate 86 -71 -84 0
-71 -86 0
-84 -86 0
71 84 86 0
c gate 87 -85 -86 0
-85 -87 0
-86 -87 0
85 86 87 0
c gate 88 -58 -70 0
-58 -88 0
-70 -88 0
58 70 88 0
c gate 89 -71 -88 0
-71 -89 0
-88 -89 0
71 88 89 0
c gate 90 12 89 0
12 -90 0
89 -90 0
-12 -89 90 0
c gate 91 -12 -89 0
-12 -91 0
-89 -91 0
12 89 91 0
c gate 92 -90 -91 0
-90 -92 0
-91 -92 0
90 91 92 0
c gate 93 -54 -57 0
-54 -93 0
-57 -93 0
54 57 93 0
c gate 94 -58 -93 0
-58 -94 0
-93 -94 0
58 93 94 0
c gate 95 1 5 0
1 -95 0
5 -95 0
-1 -5 95 0
c gate 96 9 95 0
9 -96 0
95 -96 0
-9 -95 96 0
c gate 97 -10 -96 0
-10 -97 0
-96 -97 0
10 96 97 0
c gate 98 10 96 0
10 -98 0
96 -98 0
-10 -96 98 0
c gate 99 -55 -56 0
-55 -99 0
-56 -99 0
55 56 99 0
c gate 100 -98 99 0
-98 -100 0
99 -100 0
98 -99 100 0
c gate 101 -97 -100 0
-97 -101 0
-100 -101 0
97 100 101 0
c gate 102 57 -98 0
57 -102 0
-98 -102 0
-57 98 102 0
c gate 103 101 -102 0
101 -103 0
-102 -103 0
-101 102 103 0
c gate 104 11 103 0
11 -104 0
103 -104 0
-11 -103 104 0
c gate 105 -94 -104 0
-94 -105 0
-104 -105 0
94 104 105 0
c gate 106 -11 -103 0
-11 -106 0
-103 -106 0
11 103 106 0
c gate 107 -105 -106 0
-105 -107 0
-106 -107 0
105 106 107 0
c gate 108 92 107 0
92 -108 0
107 -108 0
-92 -107 108 0
c gate 109 -90 -108 0
-90 -109 0
-108 -109 0
90 108 109 0
c gate 110 87 -109 0
87 -110 0
-109 -110 0
-87 109 110 0
c gate 111 -83 -85 0
-83 -111 0
-85 -111 0
83 85 111 0
c gate 112 -76 -80 0
-76 -112 0
-80 -112 0
76 80 112 0
c gate 113 -22 -112 0
-22 -113 0
-112 -113 0
22 112 113 0
c gate 114 22 112 0
22 -114 0
112 -114 0
-22 -112 114 0
c gate 115 -113 -114 0
-113 -115 0
-114 -115 0
113 114 115 0
c gate 116 111 -115 0
111 -116 0
-115 -116 0
-111 115 116 0
c gate 117 -111 115 0
-111 -117 0
115 -117 0
111 -115 117 0
c gate 118 -116 -117 0
-116 -118 0
-117 -118 0
116 117 118 0
c gate 119 110 118 0
110 -119 0
118 -119 0
-110 -118 119 0
c gate 120 -113 -117 0
-113 -120 0
-117 -120 0
113 117 120 0
c gate 121 -8 74 0
-8 -121 0
74 -121 0
8 -74 121 0
c gate 122 -15 -121 0
-15 -122 0
-121 -122 0
15 121 122 0
c gate 123 -120 -122 0
-120 -123 0
-122 -123 0
120 122 123 0
c gate 124 120 122 0
120 -124 0
122 -124 0
-120 -122 124 0
c gate 125 -123 -124 0
-123 -125 0
-124 -125 0
123 124 125 0
c gate 126 119 125 0
119 -126 0
125 -126 0
-119 -125 126 0
c gate 127 13 14 0
13 -127 0
14 -127 0
-13 -14 127 0
c gate 128 126 -127 0
126 -128 0
-127 -128 0
-126 127 128 0
c gate 129 -123 -127 0
-123 -129 0
-127 -129 0
123 127 129 0
c gate 130 -126 -129 0
-126 -130 0
-129 -130 0
126 129 130 0
c gate 131 -128 -130 0
-128 -131 0
-130 -131 0
128 130 131 0
c gate 132 48 -131 0
48 -132 0
-131 -132 0
-48 131 132 0
c gate 133 -48 131 0
-48 -133 0
131 -133 0
48 -131 133 0
c gate 134 -132 -133 0
-132 -134 0
-133 -134 0
132 133 134 0
c gate 135 41 -43 0
41 -135 0
-43 -135 0
-41 43 135 0
c gate 136 -44 -135 0
-44 -136 0
-135 -136 0
44 135 136 0
c gate 137 -37 -39 0
-37 -137 0
-39 -137 0
37 39 137 0
c gate 138 -40 -137 0
-40 -138 0
-137 -138 0
40 137 138 0
c gate 139 12 138 0
12 -139 0
138 -139 0
-12 -138 139 0
c gate 140 -12 -138 0
-12 -140 0
-138 -140 0
12 138 140 0
c gate 141 -139 -140 0
-139 -141 0
-140 -141 0
139 140 141 0
c gate 142 11 101 0
11 -142 0
101 -142 0
-11 -101 142 0
c gate 143 -52 -142 0
-52 -143 0
-142 -143 0
52 142 143 0
c gate 144 -11 -101 0
-11 -144 0
-101 -144 0
11 101 144 0
c gate 145 -143 -144 0
-143 -145 0
-144 -145 0
143 144 145 0
c gate 146 141 145 0
141 -146 0
145 -146 0
-141 -145 146 0
c gate 147 -139 -146 0
-139 -147 0
-146 -147 0
139 146 147 0
c gate 148 136 -147 0
136 -148 0
-147 -148 0
-136 147 148 0
c gate 149 -44 -148 0
-44 -149 0
-148 -149 0
44 148 149 0
c gate 150 -110 -118 0
-110 -150 0
-118 -150 0
110 118 150 0
c gate 151 -119 -150 0
-119 -151 0
-150 -151 0
119 150 151 0
c gate 152 149 151 0
149 -152 0
151 -152 0
-149 -151 152 0
c gate 153 -149 -151 0
-149 -153 0
-151 -153 0
149 151 153 0
c gate 154 -152 -153 0
-152 -154 0
-153 -154 0
152 153 154 0
c gate 155 22 -26 0
22 -155 0
-26 -155 0
-22 26 155 0
c gate 156 -22 26 0
-22 -156 0
26 -156 0
22 -26 156 0
c gate 157 -155 -156 0
-155 -157 0
-156 -157 0
155 156 157 0
c gate 158 154 -157 0
154 -158 0
-157 -158 0
-154 157 158 0
c gate 159 -154 157 0
-154 -159 0
157 -159 0
154 -157 159 0
c gate 160 -158 -159 0
-158 -160 0
-159 -160 0
158 159 160 0
c gate 161 -119 -125 0
-119 -161 0
-125 -161 0
119 125 161 0
c gate 162 -126 -161 0
-126 -162 0
-161 -162 0
126 161 162 0
c gate 163 148 157 0
148 -163 0
157 -163 0
-148 -157 163 0
c gate 164 -15 46 0
-15 -164 0
46 -164 0
15 -46 164 0
c gate 165 -47 -164 0
-47 -165 0
-164 -165 0
47 164 165 0
c gate 166 -163 165 0
-163 -166 0
165 -166 0
163 -165 166 0
c gate 167 162 166 0
162 -167 0
166 -167 0
-162 -166 167 0
c gate 168 -162 -166 0
-162 -168 0
-166 -168 0
162 166 168 0
c gate 169 -136 147 0
-136 -169 0
147 -169 0
136 -147 169 0
c gate 170 -148 -169 0
-148 -170 0
-169 -170 0
148 169 170 0
c gate 171 -87 109 0
-87 -171 0
109 -171 0
87 -109 171 0
c gate 172 -110 -171 0
-110 -172 0
-171 -172 0
110 171 172 0
c gate 173 170 -172 0
170 -173 0
-172 -173 0
-170 172 173 0
c gate 174 -170 172 0
-170 -174 0
172 -174 0
170 -172 174 0
c gate 175 -141 -145 0
-141 -175 0
-145 -175 0
141 145 175 0
c gate 176 -146 -175 0
-146 -176 0
-175 -176 0
146 175 176 0
c gate 177 -92 -107 0
-92 -177 0
-107 -177 0
92 107 177 0
c gate 178 -108 -177 0
-108 -178 0
-177 -178 0
108 177 178 0
c gate 179 176 -178 0
176 -179 0
-178 -179 0
-176 178 179 0
c gate 180 -176 178 0
-176 -180 0
178 -180 0
176 -178 180 0
c gate 181 -49 -57 0
-49 -181 0
-57 -181 0
49 57 181 0
c gate 182 -180 181 0
-180 -182 0
181 -182 0
180 -181 182 0
c gate 183 -179 182 0
-179 -183 0
182 -183 0
179 -182 183 0
c gate 184 -174 183 0
-174 -184 0
183 -184 0
174 -183 184 0
c gate 185 -173 184 0
-173 -185 0
184 -185 0
173 -184 185 0
c gate 186 -168 185 0
-168 -186 0
185 -186 0
168 -185 186 0
c gate 187 -167 186 0
-167 -187 0
186 -187 0
167 -186 187 0
c gate 188 -160 187 0
-160 -188 0
187 -188 0
160 -187 188 0
c gate 189 -134 188 0
-134 -189 0
188 -189 0
134 -188 189 0
c PO
-189 0
